tsp_instances/TSP20/instance46.tsp
NODE_COORD_SECTION
0 159 8
1 89 149
2 159 154
3 88 96
4 101 127
5 63 54
6 97 38
7 191 180
8 168 87
9 35 142
10 61 191
11 14 73
12 191 100
13 148 146
14 7 90
15 170 97
16 143 12
17 6 94
18 107 9
19 175 143
