tsp_instances/TSP20/instance46.opt.tour
TOUR_SECTION
1
9
16
13
20
8
3
14
4
5
2
11
10
18
15
12
6
7
19
17
-1